c 1 ~ x_0_0
c 2 ~ x_0_1
c 3 ~ x_0_2
c 4 ~ x_0_3
c 5 ~ x_0_4
c 6 ~ x_0_5
c 7 ~ x_1_0
c 8 ~ x_1_1
c 9 ~ x_1_2
c 10 ~ x_1_3
c 11 ~ x_1_4
c 12 ~ x_1_5
c 13 ~ x_2_0
c 14 ~ x_2_1
c 15 ~ x_2_2
c 16 ~ x_2_3
c 17 ~ x_2_4
c 18 ~ x_2_5
c 19 ~ x_3_0
c 20 ~ x_3_1
c 21 ~ x_3_2
c 22 ~ x_3_3
c 23 ~ x_3_4
c 24 ~ x_3_5
c 25 ~ x_4_0
c 26 ~ x_4_1
c 27 ~ x_4_2
c 28 ~ x_4_3
c 29 ~ x_4_4
c 30 ~ x_4_5
c 31 ~ x_5_0
c 32 ~ x_5_1
c 33 ~ x_5_2
c 34 ~ x_5_3
c 35 ~ x_5_4
c 36 ~ x_5_5
p cnf 36 472
1 2 3 4 5 6 0
7 8 9 10 11 12 0
13 14 15 16 17 18 0
19 20 21 22 23 24 0
25 26 27 28 29 30 0
31 32 33 34 35 36 0
1 7 13 19 25 31 0
2 8 14 20 26 32 0
3 9 15 21 27 33 0
4 10 16 22 28 34 0
5 11 17 23 29 35 0
6 12 18 24 30 36 0
-1 -7 0
-1 -13 0
-1 -19 0
-1 -25 0
-1 -31 0
-7 -1 0
-7 -13 0
-7 -19 0
-7 -25 0
-7 -31 0
-13 -1 0
-13 -7 0
-13 -19 0
-13 -25 0
-13 -31 0
-19 -1 0
-19 -7 0
-19 -13 0
-19 -25 0
-19 -31 0
-25 -1 0
-25 -7 0
-25 -13 0
-25 -19 0
-25 -31 0
-31 -1 0
-31 -7 0
-31 -13 0
-31 -19 0
-31 -25 0
-2 -8 0
-2 -14 0
-2 -20 0
-2 -26 0
-2 -32 0
-8 -2 0
-8 -14 0
-8 -20 0
-8 -26 0
-8 -32 0
-14 -2 0
-14 -8 0
-14 -20 0
-14 -26 0
-14 -32 0
-20 -2 0
-20 -8 0
-20 -14 0
-20 -26 0
-20 -32 0
-26 -2 0
-26 -8 0
-26 -14 0
-26 -20 0
-26 -32 0
-32 -2 0
-32 -8 0
-32 -14 0
-32 -20 0
-32 -26 0
-3 -9 0
-3 -15 0
-3 -21 0
-3 -27 0
-3 -33 0
-9 -3 0
-9 -15 0
-9 -21 0
-9 -27 0
-9 -33 0
-15 -3 0
-15 -9 0
-15 -21 0
-15 -27 0
-15 -33 0
-21 -3 0
-21 -9 0
-21 -15 0
-21 -27 0
-21 -33 0
-27 -3 0
-27 -9 0
-27 -15 0
-27 -21 0
-27 -33 0
-33 -3 0
-33 -9 0
-33 -15 0
-33 -21 0
-33 -27 0
-4 -10 0
-4 -16 0
-4 -22 0
-4 -28 0
-4 -34 0
-10 -4 0
-10 -16 0
-10 -22 0
-10 -28 0
-10 -34 0
-16 -4 0
-16 -10 0
-16 -22 0
-16 -28 0
-16 -34 0
-22 -4 0
-22 -10 0
-22 -16 0
-22 -28 0
-22 -34 0
-28 -4 0
-28 -10 0
-28 -16 0
-28 -22 0
-28 -34 0
-34 -4 0
-34 -10 0
-34 -16 0
-34 -22 0
-34 -28 0
-5 -11 0
-5 -17 0
-5 -23 0
-5 -29 0
-5 -35 0
-11 -5 0
-11 -17 0
-11 -23 0
-11 -29 0
-11 -35 0
-17 -5 0
-17 -11 0
-17 -23 0
-17 -29 0
-17 -35 0
-23 -5 0
-23 -11 0
-23 -17 0
-23 -29 0
-23 -35 0
-29 -5 0
-29 -11 0
-29 -17 0
-29 -23 0
-29 -35 0
-35 -5 0
-35 -11 0
-35 -17 0
-35 -23 0
-35 -29 0
-6 -12 0
-6 -18 0
-6 -24 0
-6 -30 0
-6 -36 0
-12 -6 0
-12 -18 0
-12 -24 0
-12 -30 0
-12 -36 0
-18 -6 0
-18 -12 0
-18 -24 0
-18 -30 0
-18 -36 0
-24 -6 0
-24 -12 0
-24 -18 0
-24 -30 0
-24 -36 0
-30 -6 0
-30 -12 0
-30 -18 0
-30 -24 0
-30 -36 0
-36 -6 0
-36 -12 0
-36 -18 0
-36 -24 0
-36 -30 0
-1 -2 0
-1 -3 0
-1 -4 0
-1 -5 0
-1 -6 0
-2 -1 0
-2 -3 0
-2 -4 0
-2 -5 0
-2 -6 0
-3 -1 0
-3 -2 0
-3 -4 0
-3 -5 0
-3 -6 0
-4 -1 0
-4 -2 0
-4 -3 0
-4 -5 0
-4 -6 0
-5 -1 0
-5 -2 0
-5 -3 0
-5 -4 0
-5 -6 0
-6 -1 0
-6 -2 0
-6 -3 0
-6 -4 0
-6 -5 0
-7 -8 0
-7 -9 0
-7 -10 0
-7 -11 0
-7 -12 0
-8 -7 0
-8 -9 0
-8 -10 0
-8 -11 0
-8 -12 0
-9 -7 0
-9 -8 0
-9 -10 0
-9 -11 0
-9 -12 0
-10 -7 0
-10 -8 0
-10 -9 0
-10 -11 0
-10 -12 0
-11 -7 0
-11 -8 0
-11 -9 0
-11 -10 0
-11 -12 0
-12 -7 0
-12 -8 0
-12 -9 0
-12 -10 0
-12 -11 0
-13 -14 0
-13 -15 0
-13 -16 0
-13 -17 0
-13 -18 0
-14 -13 0
-14 -15 0
-14 -16 0
-14 -17 0
-14 -18 0
-15 -13 0
-15 -14 0
-15 -16 0
-15 -17 0
-15 -18 0
-16 -13 0
-16 -14 0
-16 -15 0
-16 -17 0
-16 -18 0
-17 -13 0
-17 -14 0
-17 -15 0
-17 -16 0
-17 -18 0
-18 -13 0
-18 -14 0
-18 -15 0
-18 -16 0
-18 -17 0
-19 -20 0
-19 -21 0
-19 -22 0
-19 -23 0
-19 -24 0
-20 -19 0
-20 -21 0
-20 -22 0
-20 -23 0
-20 -24 0
-21 -19 0
-21 -20 0
-21 -22 0
-21 -23 0
-21 -24 0
-22 -19 0
-22 -20 0
-22 -21 0
-22 -23 0
-22 -24 0
-23 -19 0
-23 -20 0
-23 -21 0
-23 -22 0
-23 -24 0
-24 -19 0
-24 -20 0
-24 -21 0
-24 -22 0
-24 -23 0
-25 -26 0
-25 -27 0
-25 -28 0
-25 -29 0
-25 -30 0
-26 -25 0
-26 -27 0
-26 -28 0
-26 -29 0
-26 -30 0
-27 -25 0
-27 -26 0
-27 -28 0
-27 -29 0
-27 -30 0
-28 -25 0
-28 -26 0
-28 -27 0
-28 -29 0
-28 -30 0
-29 -25 0
-29 -26 0
-29 -27 0
-29 -28 0
-29 -30 0
-30 -25 0
-30 -26 0
-30 -27 0
-30 -28 0
-30 -29 0
-31 -32 0
-31 -33 0
-31 -34 0
-31 -35 0
-31 -36 0
-32 -31 0
-32 -33 0
-32 -34 0
-32 -35 0
-32 -36 0
-33 -31 0
-33 -32 0
-33 -34 0
-33 -35 0
-33 -36 0
-34 -31 0
-34 -32 0
-34 -33 0
-34 -35 0
-34 -36 0
-35 -31 0
-35 -32 0
-35 -33 0
-35 -34 0
-35 -36 0
-36 -31 0
-36 -32 0
-36 -33 0
-36 -34 0
-36 -35 0
-1 -14 0
-1 -20 0
-1 -26 0
-1 -32 0
-7 -20 0
-7 -26 0
-7 -32 0
-13 -2 0
-13 -26 0
-13 -32 0
-19 -2 0
-19 -8 0
-19 -32 0
-25 -2 0
-25 -8 0
-25 -14 0
-31 -2 0
-31 -8 0
-31 -14 0
-31 -20 0
-2 -15 0
-2 -21 0
-2 -27 0
-2 -33 0
-8 -21 0
-8 -27 0
-8 -33 0
-14 -3 0
-14 -27 0
-14 -33 0
-20 -3 0
-20 -9 0
-20 -33 0
-26 -3 0
-26 -9 0
-26 -15 0
-32 -3 0
-32 -9 0
-32 -15 0
-32 -21 0
-3 -16 0
-3 -22 0
-3 -28 0
-3 -34 0
-9 -22 0
-9 -28 0
-9 -34 0
-15 -4 0
-15 -28 0
-15 -34 0
-21 -4 0
-21 -10 0
-21 -34 0
-27 -4 0
-27 -10 0
-27 -16 0
-33 -4 0
-33 -10 0
-33 -16 0
-33 -22 0
-4 -17 0
-4 -23 0
-4 -29 0
-4 -35 0
-10 -23 0
-10 -29 0
-10 -35 0
-16 -5 0
-16 -29 0
-16 -35 0
-22 -5 0
-22 -11 0
-22 -35 0
-28 -5 0
-28 -11 0
-28 -17 0
-34 -5 0
-34 -11 0
-34 -17 0
-34 -23 0
-5 -18 0
-5 -24 0
-5 -30 0
-5 -36 0
-11 -24 0
-11 -30 0
-11 -36 0
-17 -6 0
-17 -30 0
-17 -36 0
-23 -6 0
-23 -12 0
-23 -36 0
-29 -6 0
-29 -12 0
-29 -18 0
-35 -6 0
-35 -12 0
-35 -18 0
-35 -24 0
